instances/knapsack/discrete/knapsack_20_5.kp
46117
20
85

27 2.7 84
8 0.8 4
42 4.2 62
7 0.7 70
12 1.2 75
21 2.1 55
49 4.9 19
83 8.3 69
13 1.3 56
6 0.6 48
55 5.5 1
63 6.3 69
28 2.8 37
56 5.6 84
8 0.8 69
4 0.4 66
17 1.7 48
76 7.6 4
85 8.5 44
82 8.2 7

8195
87

[2.38 1.76 3.36 2.96 1.58 3.87 4.26 0.47 3.36 2.71 2.51 0.23 0.92 4.09 4.03 3.59 3.48 1.88 3.43 0.53]

[70 39 33 14 87 8 16 58 8 17 22 6 31 15 39 59 76 71 4 69]
